p cnf 801 1777
1 0
2 0
3 0
4 0
5 0
6 0
7 0
8 0
9 0
10 0
11 0
12 0
13 0
14 0
15 0
16 0
17 0
18 0
19 0
20 0
21 0
22 0
23 0
24 0
25 0
26 0
27 0
28 0
29 0
30 0
31 0
32 0
33 0
34 0
35 0
36 0
37 0
38 0
39 0
40 0
41 0
42 0
43 0
44 0
45 0
46 0
47 0
48 0
49 0
50 0
-51 0
-52 0
-53 0
-54 0
-55 0
-56 0
-57 0
-58 0
-59 0
-60 0
-61 0
-62 0
-63 0
-64 0
-65 0
-66 0
-67 0
-68 0
-69 0
-70 0
-71 0
-72 0
-73 0
-74 0
-75 0
-76 0
-77 0
-78 0
-79 0
-80 0
-81 0
-82 0
-83 0
-84 0
-85 0
-86 0
-87 0
-88 0
-89 0
-90 0
-91 0
-92 0
-93 0
-94 0
-95 0
-96 0
-97 0
-98 0
-99 0
-100 0
101 -102 0
-103 101 0
102 103 -101 0
1 -101 0
-1 101 0
104 -101 0
-104 101 0
-105 106 0
-107 106 0
106 -108 0
-109 106 0
106 -110 0
-111 106 0
-112 106 0
113 0
2 -106 0
-2 106 0
-107 114 0
-108 114 0
-109 114 0
-110 114 0
-111 114 0
-112 114 0
115 0
116 -114 0
-116 114 0
-108 117 0
-109 117 0
-110 117 0
-111 117 0
-112 117 0
108 109 110 111 112 -117 0
118 -117 0
-118 117 0
-109 119 0
-110 119 0
-111 119 0
-112 119 0
109 110 111 112 -119 0
120 -119 0
-120 119 0
121 -119 0
-121 119 0
122 -119 0
-122 119 0
123 -119 0
-123 119 0
124 -125 0
124 -126 0
-127 124 0
124 -128 0
124 -129 0
-130 124 0
124 -131 0
132 0
3 -124 0
-3 124 0
-126 133 0
-127 133 0
-128 133 0
-129 133 0
-130 133 0
-131 133 0
134 0
135 -133 0
-135 133 0
-127 136 0
-128 136 0
-129 136 0
-130 136 0
-131 136 0
127 128 129 130 131 -136 0
137 -136 0
-137 136 0
-128 138 0
-129 138 0
-130 138 0
-131 138 0
128 129 130 131 -138 0
139 -138 0
-139 138 0
140 -138 0
-140 138 0
141 -138 0
-141 138 0
142 -138 0
-142 138 0
143 -144 0
143 -145 0
-146 143 0
144 145 146 -143 0
4 -143 0
-4 143 0
-145 147 0
-146 147 0
145 146 -147 0
148 -147 0
-148 147 0
149 -146 0
-149 146 0
150 -151 0
-152 150 0
-153 150 0
-154 150 0
150 -155 0
151 152 153 154 155 -150 0
5 -150 0
-5 150 0
-152 156 0
-153 156 0
-154 156 0
-155 156 0
152 153 154 155 -156 0
157 -156 0
-157 156 0
-153 158 0
-154 158 0
-155 158 0
153 154 155 -158 0
159 -158 0
-159 158 0
160 -158 0
-160 158 0
161 -158 0
-161 158 0
-162 163 0
-164 163 0
-165 163 0
163 -166 0
163 -167 0
-168 163 0
169 0
6 -163 0
-6 163 0
-164 170 0
-165 170 0
-166 170 0
-167 170 0
-168 170 0
164 165 166 167 168 -170 0
171 -170 0
-171 170 0
-165 172 0
-166 172 0
-167 172 0
-168 172 0
165 166 167 168 -172 0
173 -172 0
-173 172 0
-166 174 0
-167 174 0
-168 174 0
166 167 168 -174 0
175 -174 0
-175 174 0
-167 176 0
-168 176 0
167 168 -176 0
177 -176 0
-177 176 0
178 -176 0
-178 176 0
-179 180 0
180 -181 0
180 -182 0
-183 180 0
180 -184 0
179 181 182 183 184 -180 0
7 -180 0
-7 180 0
-181 185 0
-182 185 0
-183 185 0
-184 185 0
181 182 183 184 -185 0
186 -185 0
-186 185 0
187 -185 0
-187 185 0
188 -185 0
-188 185 0
189 -185 0
-189 185 0
190 -191 0
-192 190 0
-193 190 0
-194 190 0
190 -195 0
191 192 193 194 195 -190 0
8 -190 0
-8 190 0
-192 196 0
-193 196 0
-194 196 0
-195 196 0
192 193 194 195 -196 0
197 -196 0
-197 196 0
-193 198 0
-194 198 0
-195 198 0
193 194 195 -198 0
199 -198 0
-199 198 0
200 -198 0
-200 198 0
201 -198 0
-201 198 0
-202 203 0
-204 203 0
-205 203 0
203 -206 0
203 -207 0
-208 203 0
-209 203 0
210 0
9 -203 0
-9 203 0
-204 211 0
-205 211 0
-206 211 0
-207 211 0
-208 211 0
-209 211 0
212 0
213 -211 0
-213 211 0
-205 214 0
-206 214 0
-207 214 0
-208 214 0
-209 214 0
205 206 207 208 209 -214 0
215 -214 0
-215 214 0
-206 216 0
-207 216 0
-208 216 0
-209 216 0
206 207 208 209 -216 0
217 -216 0
-217 216 0
-207 218 0
-208 218 0
-209 218 0
207 208 209 -218 0
219 -218 0
-219 218 0
220 -218 0
-220 218 0
221 -218 0
-221 218 0
222 -223 0
-224 222 0
-225 222 0
-226 222 0
222 -227 0
223 224 225 226 227 -222 0
10 -222 0
-10 222 0
-224 228 0
-225 228 0
-226 228 0
-227 228 0
224 225 226 227 -228 0
229 -228 0
-229 228 0
-225 230 0
-226 230 0
-227 230 0
225 226 227 -230 0
231 -230 0
-231 230 0
-226 232 0
-227 232 0
226 227 -232 0
233 -232 0
-233 232 0
234 -232 0
-234 232 0
235 -236 0
-237 235 0
235 -238 0
236 237 238 -235 0
11 -235 0
-11 235 0
-237 239 0
-238 239 0
237 238 -239 0
240 -239 0
-240 239 0
241 -238 0
-241 238 0
242 -243 0
242 -244 0
242 -245 0
242 -246 0
242 -247 0
-248 242 0
249 0
12 -242 0
-12 242 0
-244 250 0
-245 250 0
-246 250 0
-247 250 0
-248 250 0
251 0
252 -250 0
-252 250 0
-245 253 0
-246 253 0
-247 253 0
-248 253 0
245 246 247 248 -253 0
254 -253 0
-254 253 0
255 -253 0
-255 253 0
256 -253 0
-256 253 0
257 -253 0
-257 253 0
258 -259 0
-260 258 0
259 260 -258 0
13 -258 0
-13 258 0
261 -260 0
-261 260 0
262 -263 0
-264 262 0
262 -265 0
262 -266 0
262 -267 0
262 -268 0
-269 262 0
270 0
14 -262 0
-14 262 0
-264 271 0
-265 271 0
-266 271 0
-267 271 0
-268 271 0
-269 271 0
272 0
273 -271 0
-273 271 0
-265 274 0
-266 274 0
-267 274 0
-268 274 0
-269 274 0
275 0
276 -274 0
-276 274 0
-266 277 0
-267 277 0
-268 277 0
-269 277 0
266 267 268 269 -277 0
278 -277 0
-278 277 0
279 -277 0
-279 277 0
280 -277 0
-280 277 0
281 -277 0
-281 277 0
282 -283 0
282 -284 0
-285 282 0
283 284 285 -282 0
15 -282 0
-15 282 0
-284 286 0
-285 286 0
284 285 -286 0
287 -286 0
-287 286 0
288 -286 0
-288 286 0
-289 290 0
-291 290 0
-292 290 0
290 -293 0
290 -294 0
290 -295 0
-296 290 0
-297 290 0
298 0
16 -290 0
-16 290 0
-291 299 0
-292 299 0
-293 299 0
-294 299 0
-295 299 0
-296 299 0
-297 299 0
300 0
301 -299 0
-301 299 0
-292 302 0
-293 302 0
-294 302 0
-295 302 0
-296 302 0
-297 302 0
303 0
304 -302 0
-304 302 0
-293 305 0
-294 305 0
-295 305 0
-296 305 0
-297 305 0
306 0
307 -305 0
-307 305 0
-294 308 0
-295 308 0
-296 308 0
-297 308 0
294 295 296 297 -308 0
309 -308 0
-309 308 0
310 -308 0
-310 308 0
311 -308 0
-311 308 0
312 -308 0
-312 308 0
313 -314 0
313 -315 0
-316 313 0
-317 313 0
313 -318 0
313 -319 0
320 0
17 -313 0
-17 313 0
-315 321 0
-316 321 0
-317 321 0
-318 321 0
-319 321 0
322 0
323 -321 0
-323 321 0
-316 324 0
-317 324 0
-318 324 0
-319 324 0
316 317 318 319 -324 0
325 -324 0
-325 324 0
-317 326 0
-318 326 0
-319 326 0
317 318 319 -326 0
327 -326 0
-327 326 0
328 -326 0
-328 326 0
329 -326 0
-329 326 0
330 -331 0
-332 330 0
-333 330 0
330 -334 0
330 -335 0
336 0
18 -330 0
-18 330 0
-332 337 0
-333 337 0
-334 337 0
-335 337 0
332 333 334 335 -337 0
338 -337 0
-338 337 0
-333 339 0
-334 339 0
-335 339 0
333 334 335 -339 0
340 -339 0
-340 339 0
341 -339 0
-341 339 0
342 -339 0
-342 339 0
343 -344 0
343 -345 0
343 -346 0
-347 343 0
343 -348 0
-349 343 0
-350 343 0
351 0
19 -343 0
-19 343 0
-345 352 0
-346 352 0
-347 352 0
-348 352 0
-349 352 0
-350 352 0
353 0
354 -352 0
-354 352 0
-346 355 0
-347 355 0
-348 355 0
-349 355 0
-350 355 0
356 0
357 -355 0
-357 355 0
-347 358 0
-348 358 0
-349 358 0
-350 358 0
347 348 349 350 -358 0
359 -358 0
-359 358 0
360 -358 0
-360 358 0
361 -358 0
-361 358 0
362 -358 0
-362 358 0
363 -364 0
-365 363 0
-366 363 0
363 -367 0
-368 363 0
369 0
20 -363 0
-20 363 0
-365 370 0
-366 370 0
-367 370 0
-368 370 0
365 366 367 368 -370 0
371 -370 0
-371 370 0
-366 372 0
-367 372 0
-368 372 0
366 367 368 -372 0
373 -372 0
-373 372 0
-367 374 0
-368 374 0
367 368 -374 0
375 -374 0
-375 374 0
376 -368 0
-376 368 0
377 -378 0
-379 377 0
-380 377 0
-381 377 0
377 -382 0
383 0
21 -377 0
-21 377 0
-379 384 0
-380 384 0
-381 384 0
-382 384 0
379 380 381 382 -384 0
385 -384 0
-385 384 0
-380 386 0
-381 386 0
-382 386 0
380 381 382 -386 0
387 -386 0
-387 386 0
388 -386 0
-388 386 0
389 -386 0
-389 386 0
390 -391 0
-392 390 0
391 392 -390 0
22 -390 0
-22 390 0
393 -392 0
-393 392 0
394 -395 0
394 -396 0
394 -397 0
394 -398 0
394 -399 0
-400 394 0
401 0
23 -394 0
-23 394 0
-396 402 0
-397 402 0
-398 402 0
-399 402 0
-400 402 0
403 0
404 -402 0
-404 402 0
-397 405 0
-398 405 0
-399 405 0
-400 405 0
397 398 399 400 -405 0
406 -405 0
-406 405 0
407 -405 0
-407 405 0
408 -405 0
-408 405 0
409 -405 0
-409 405 0
410 -411 0
-412 410 0
-413 410 0
-414 410 0
410 -415 0
410 -416 0
417 0
24 -410 0
-24 410 0
-412 418 0
-413 418 0
-414 418 0
-415 418 0
-416 418 0
419 0
420 -418 0
-420 418 0
-413 421 0
-414 421 0
-415 421 0
-416 421 0
413 414 415 416 -421 0
422 -421 0
-422 421 0
-414 423 0
-415 423 0
-416 423 0
414 415 416 -423 0
424 -423 0
-424 423 0
425 -423 0
-425 423 0
426 -423 0
-426 423 0
-427 428 0
-429 428 0
428 -430 0
428 -431 0
427 429 430 431 -428 0
25 -428 0
-25 428 0
-429 432 0
-430 432 0
-431 432 0
429 430 431 -432 0
433 -432 0
-433 432 0
434 -432 0
-434 432 0
435 -432 0
-435 432 0
436 -437 0
-438 436 0
-439 436 0
436 -440 0
437 438 439 440 -436 0
26 -436 0
-26 436 0
-438 441 0
-439 441 0
-440 441 0
438 439 440 -441 0
442 -441 0
-442 441 0
-439 443 0
-440 443 0
439 440 -443 0
444 -443 0
-444 443 0
445 -443 0
-445 443 0
446 -447 0
-448 446 0
446 -449 0
-450 446 0
446 -451 0
-452 446 0
453 0
27 -446 0
-27 446 0
-448 454 0
-449 454 0
-450 454 0
-451 454 0
-452 454 0
455 0
456 -454 0
-456 454 0
-449 457 0
-450 457 0
-451 457 0
-452 457 0
449 450 451 452 -457 0
458 -457 0
-458 457 0
-450 459 0
-451 459 0
-452 459 0
450 451 452 -459 0
460 -459 0
-460 459 0
461 -459 0
-461 459 0
462 -459 0
-462 459 0
-463 464 0
464 -465 0
-466 464 0
464 -467 0
-468 464 0
469 0
28 -464 0
-28 464 0
-465 470 0
-466 470 0
-467 470 0
-468 470 0
465 466 467 468 -470 0
471 -470 0
-471 470 0
-466 472 0
-467 472 0
-468 472 0
466 467 468 -472 0
473 -472 0
-473 472 0
-467 474 0
-468 474 0
467 468 -474 0
475 -474 0
-475 474 0
476 -468 0
-476 468 0
-477 478 0
-479 478 0
478 -480 0
-481 478 0
477 479 480 481 -478 0
29 -478 0
-29 478 0
482 -478 0
-482 478 0
483 -478 0
-483 478 0
484 -478 0
-484 478 0
-485 486 0
486 -487 0
-488 486 0
486 -489 0
486 -490 0
491 0
30 -486 0
-30 486 0
-487 492 0
-488 492 0
-489 492 0
-490 492 0
487 488 489 490 -492 0
493 -492 0
-493 492 0
494 -492 0
-494 492 0
495 -492 0
-495 492 0
496 -492 0
-496 492 0
497 -498 0
497 -499 0
-500 497 0
498 499 500 -497 0
31 -497 0
-31 497 0
-499 501 0
-500 501 0
499 500 -501 0
502 -501 0
-502 501 0
503 -500 0
-503 500 0
-504 505 0
505 -506 0
-507 505 0
505 -508 0
505 -509 0
-510 505 0
511 0
32 -505 0
-32 505 0
-506 512 0
-507 512 0
-508 512 0
-509 512 0
-510 512 0
513 0
514 -512 0
-514 512 0
-507 515 0
-508 515 0
-509 515 0
-510 515 0
507 508 509 510 -515 0
516 -515 0
-516 515 0
517 -515 0
-517 515 0
518 -515 0
-518 515 0
519 -515 0
-519 515 0
-520 521 0
521 -522 0
521 -523 0
-524 521 0
520 522 523 524 -521 0
33 -521 0
-33 521 0
-522 525 0
-523 525 0
-524 525 0
522 523 524 -525 0
526 -525 0
-526 525 0
-523 527 0
-524 527 0
523 524 -527 0
528 -527 0
-528 527 0
529 -527 0
-529 527 0
-530 531 0
531 -532 0
-533 531 0
530 532 533 -531 0
34 -531 0
-34 531 0
-532 534 0
-533 534 0
532 533 -534 0
535 -534 0
-535 534 0
536 -533 0
-536 533 0
537 -538 0
537 -539 0
-540 537 0
538 539 540 -537 0
35 -537 0
-35 537 0
-539 541 0
-540 541 0
539 540 -541 0
542 -541 0
-542 541 0
543 -540 0
-543 540 0
544 -545 0
544 -546 0
-547 544 0
-548 544 0
-549 544 0
544 -550 0
551 0
36 -544 0
-36 544 0
-546 552 0
-547 552 0
-548 552 0
-549 552 0
-550 552 0
553 0
554 -552 0
-554 552 0
-547 555 0
-548 555 0
-549 555 0
-550 555 0
547 548 549 550 -555 0
556 -555 0
-556 555 0
-548 557 0
-549 557 0
-550 557 0
548 549 550 -557 0
558 -557 0
-558 557 0
-549 559 0
-550 559 0
549 550 -559 0
560 -559 0
-560 559 0
561 -559 0
-561 559 0
-562 563 0
563 -564 0
563 -565 0
563 -566 0
563 -567 0
-568 563 0
569 0
37 -563 0
-37 563 0
-564 570 0
-565 570 0
-566 570 0
-567 570 0
-568 570 0
571 0
572 -570 0
-572 570 0
-565 573 0
-566 573 0
-567 573 0
-568 573 0
565 566 567 568 -573 0
574 -573 0
-574 573 0
575 -573 0
-575 573 0
576 -573 0
-576 573 0
577 -573 0
-577 573 0
-578 579 0
579 -580 0
-581 579 0
578 580 581 -579 0
38 -579 0
-38 579 0
582 -579 0
-582 579 0
583 -579 0
-583 579 0
-584 585 0
-586 585 0
585 -587 0
585 -588 0
-589 585 0
585 -590 0
585 -591 0
-592 585 0
593 0
39 -585 0
-39 585 0
-586 594 0
-587 594 0
-588 594 0
-589 594 0
-590 594 0
-591 594 0
-592 594 0
595 0
596 -594 0
-596 594 0
-587 597 0
-588 597 0
-589 597 0
-590 597 0
-591 597 0
-592 597 0
598 0
599 -597 0
-599 597 0
-588 600 0
-589 600 0
-590 600 0
-591 600 0
-592 600 0
601 0
602 -600 0
-602 600 0
-589 603 0
-590 603 0
-591 603 0
-592 603 0
589 590 591 592 -603 0
604 -603 0
-604 603 0
605 -603 0
-605 603 0
606 -603 0
-606 603 0
607 -603 0
-607 603 0
-608 609 0
-610 609 0
-611 609 0
609 -612 0
609 -613 0
614 0
40 -609 0
-40 609 0
-610 615 0
-611 615 0
-612 615 0
-613 615 0
610 611 612 613 -615 0
616 -615 0
-616 615 0
617 -615 0
-617 615 0
618 -615 0
-618 615 0
619 -615 0
-619 615 0
620 -621 0
620 -622 0
620 -623 0
-624 620 0
621 622 623 624 -620 0
41 -620 0
-41 620 0
-622 625 0
-623 625 0
-624 625 0
622 623 624 -625 0
626 -625 0
-626 625 0
-623 627 0
-624 627 0
623 624 -627 0
628 -627 0
-628 627 0
629 -627 0
-629 627 0
-630 631 0
631 -632 0
630 632 -631 0
42 -631 0
-42 631 0
633 -631 0
-633 631 0
-634 635 0
-636 635 0
635 -637 0
635 -638 0
-639 635 0
640 0
43 -635 0
-43 635 0
-636 641 0
-637 641 0
-638 641 0
-639 641 0
636 637 638 639 -641 0
642 -641 0
-642 641 0
-637 643 0
-638 643 0
-639 643 0
637 638 639 -643 0
644 -643 0
-644 643 0
-638 645 0
-639 645 0
638 639 -645 0
646 -645 0
-646 645 0
647 -639 0
-647 639 0
-648 649 0
649 -650 0
648 650 -649 0
44 -649 0
-44 649 0
651 -650 0
-651 650 0
-652 653 0
-654 653 0
653 -655 0
-656 653 0
653 -657 0
-658 653 0
659 0
45 -653 0
-45 653 0
-654 660 0
-655 660 0
-656 660 0
-657 660 0
-658 660 0
661 0
662 -660 0
-662 660 0
-655 663 0
-656 663 0
-657 663 0
-658 663 0
655 656 657 658 -663 0
664 -663 0
-664 663 0
-656 665 0
-657 665 0
-658 665 0
656 657 658 -665 0
666 -665 0
-666 665 0
667 -665 0
-667 665 0
668 -665 0
-668 665 0
-669 670 0
670 -671 0
-672 670 0
670 -673 0
670 -674 0
670 -675 0
-676 670 0
-677 670 0
678 0
46 -670 0
-46 670 0
-671 679 0
-672 679 0
-673 679 0
-674 679 0
-675 679 0
-676 679 0
-677 679 0
680 0
681 -679 0
-681 679 0
-672 682 0
-673 682 0
-674 682 0
-675 682 0
-676 682 0
-677 682 0
683 0
684 -682 0
-684 682 0
-673 685 0
-674 685 0
-675 685 0
-676 685 0
-677 685 0
686 0
687 -685 0
-687 685 0
-674 688 0
-675 688 0
-676 688 0
-677 688 0
674 675 676 677 -688 0
689 -688 0
-689 688 0
690 -688 0
-690 688 0
691 -688 0
-691 688 0
692 -688 0
-692 688 0
-693 694 0
-695 694 0
-696 694 0
694 -697 0
693 695 696 697 -694 0
47 -694 0
-47 694 0
-695 698 0
-696 698 0
-697 698 0
695 696 697 -698 0
699 -698 0
-699 698 0
-696 700 0
-697 700 0
696 697 -700 0
701 -700 0
-701 700 0
702 -700 0
-702 700 0
703 -704 0
-705 703 0
704 705 -703 0
48 -703 0
-48 703 0
706 -705 0
-706 705 0
-707 708 0
-709 708 0
708 -710 0
708 -711 0
708 -712 0
708 -713 0
-714 708 0
-715 708 0
716 0
49 -708 0
-49 708 0
-709 717 0
-710 717 0
-711 717 0
-712 717 0
-713 717 0
-714 717 0
-715 717 0
718 0
719 -717 0
-719 717 0
-710 720 0
-711 720 0
-712 720 0
-713 720 0
-714 720 0
-715 720 0
721 0
722 -720 0
-722 720 0
-711 723 0
-712 723 0
-713 723 0
-714 723 0
-715 723 0
724 0
725 -723 0
-725 723 0
-712 726 0
-713 726 0
-714 726 0
-715 726 0
712 713 714 715 -726 0
727 -726 0
-727 726 0
728 -726 0
-728 726 0
729 -726 0
-729 726 0
730 -726 0
-730 726 0
-731 732 0
732 -733 0
-734 732 0
732 -735 0
732 -736 0
737 0
50 -732 0
-50 732 0
-733 738 0
-734 738 0
-735 738 0
-736 738 0
733 734 735 736 -738 0
739 -738 0
-739 738 0
740 -738 0
-740 738 0
741 -738 0
-741 738 0
742 -738 0
-742 738 0
51 -743 0
-51 743 0
52 -744 0
-52 744 0
53 -745 0
-53 745 0
54 -746 0
-54 746 0
55 -747 0
-55 747 0
56 -748 0
-56 748 0
57 -749 0
-57 749 0
58 -750 0
-58 750 0
59 -751 0
-59 751 0
60 -752 0
-60 752 0
61 -753 0
-61 753 0
62 -754 0
-62 754 0
63 -755 0
-63 755 0
64 -756 0
-64 756 0
65 -757 0
-65 757 0
66 -758 0
-66 758 0
67 -759 0
-67 759 0
68 -760 0
-68 760 0
69 -761 0
-69 761 0
70 -762 0
-70 762 0
71 -763 0
-71 763 0
72 -764 0
-72 764 0
73 -765 0
-73 765 0
74 -766 0
-74 766 0
75 -767 0
-75 767 0
76 -768 0
-76 768 0
77 -769 0
-77 769 0
78 -770 0
-78 770 0
79 -771 0
-79 771 0
80 -772 0
-80 772 0
81 -773 0
-81 773 0
82 -774 0
-82 774 0
83 -775 0
-83 775 0
84 -776 0
-84 776 0
85 -777 0
-85 777 0
86 -778 0
-86 778 0
87 -779 0
-87 779 0
88 -780 0
-88 780 0
89 -781 0
-89 781 0
90 -782 0
-90 782 0
91 -783 0
-91 783 0
92 -784 0
-92 784 0
93 -785 0
-93 785 0
94 -786 0
-94 786 0
95 -787 0
-95 787 0
96 -788 0
-96 788 0
97 -789 0
-97 789 0
98 -790 0
-98 790 0
99 -791 0
-99 791 0
100 -792 0
-100 792 0
102 -793 0
-793 -103 0
-793 -105 0
-793 -107 0
108 -793 0
-793 -109 0
110 -793 0
-793 -111 0
-793 -112 0
125 -793 0
126 -793 0
-793 -127 0
128 -793 0
129 -793 0
-793 -130 0
131 -793 0
144 -793 0
145 -793 0
-793 -146 0
151 -793 0
-793 -152 0
-793 -153 0
-793 -154 0
155 -793 0
-793 -162 0
-793 -164 0
-793 -165 0
166 -793 0
167 -793 0
-793 -168 0
-793 -179 0
181 -793 0
182 -793 0
-793 -183 0
184 -793 0
191 -793 0
-793 -192 0
-793 -193 0
-793 -194 0
195 -793 0
-793 -202 0
-793 -204 0
-793 -205 0
206 -793 0
207 -793 0
-793 -208 0
-793 -209 0
223 -793 0
-793 -224 0
-793 -225 0
-793 -226 0
227 -793 0
236 -793 0
-793 -237 0
238 -793 0
243 -793 0
244 -793 0
245 -793 0
246 -793 0
247 -793 0
-793 -248 0
259 -793 0
-793 -260 0
263 -793 0
-793 -264 0
265 -793 0
266 -793 0
267 -793 0
268 -793 0
-793 -269 0
283 -793 0
284 -793 0
-793 -285 0
-793 -289 0
-793 -291 0
-793 -292 0
293 -793 0
294 -793 0
295 -793 0
-793 -296 0
-793 -297 0
314 -793 0
315 -793 0
-793 -316 0
-793 -317 0
318 -793 0
319 -793 0
331 -793 0
-793 -332 0
-793 -333 0
334 -793 0
335 -793 0
344 -793 0
345 -793 0
346 -793 0
-793 -347 0
348 -793 0
-793 -349 0
-793 -350 0
364 -793 0
-793 -365 0
-793 -366 0
367 -793 0
-793 -368 0
378 -793 0
-793 -379 0
-793 -380 0
-793 -381 0
382 -793 0
391 -793 0
-793 -392 0
395 -793 0
396 -793 0
397 -793 0
398 -793 0
399 -793 0
-793 -400 0
411 -793 0
-793 -412 0
-793 -413 0
-793 -414 0
415 -793 0
416 -793 0
-793 -427 0
-793 -429 0
430 -793 0
431 -793 0
437 -793 0
-793 -438 0
-793 -439 0
440 -793 0
447 -793 0
-793 -448 0
449 -793 0
-793 -450 0
451 -793 0
-793 -452 0
-793 -463 0
465 -793 0
-793 -466 0
467 -793 0
-793 -468 0
-793 -477 0
-793 -479 0
480 -793 0
-793 -481 0
-793 -485 0
487 -793 0
-793 -488 0
489 -793 0
490 -793 0
498 -793 0
499 -793 0
-793 -500 0
-793 -504 0
506 -793 0
-793 -507 0
508 -793 0
509 -793 0
-793 -510 0
-793 -520 0
522 -793 0
523 -793 0
-793 -524 0
-793 -530 0
532 -793 0
-793 -533 0
538 -793 0
539 -793 0
-793 -540 0
545 -793 0
546 -793 0
-793 -547 0
-793 -548 0
-793 -549 0
550 -793 0
-793 -562 0
564 -793 0
565 -793 0
566 -793 0
567 -793 0
-793 -568 0
-793 -578 0
580 -793 0
-793 -581 0
-793 -584 0
-793 -586 0
587 -793 0
588 -793 0
-793 -589 0
590 -793 0
591 -793 0
-793 -592 0
-793 -608 0
-793 -610 0
-793 -611 0
612 -793 0
613 -793 0
621 -793 0
622 -793 0
623 -793 0
-793 -624 0
-793 -630 0
632 -793 0
-793 -634 0
-793 -636 0
637 -793 0
638 -793 0
-793 -639 0
-793 -648 0
650 -793 0
-793 -652 0
-793 -654 0
655 -793 0
-793 -656 0
657 -793 0
-793 -658 0
-793 -669 0
671 -793 0
-793 -672 0
673 -793 0
674 -793 0
675 -793 0
-793 -676 0
-793 -677 0
-793 -693 0
-793 -695 0
-793 -696 0
697 -793 0
704 -793 0
-793 -705 0
-793 -707 0
-793 -709 0
710 -793 0
711 -793 0
712 -793 0
713 -793 0
-793 -714 0
-793 -715 0
-793 -731 0
733 -793 0
-793 -734 0
735 -793 0
736 -793 0
-793 -743 0
-793 -744 0
-793 -745 0
-793 -746 0
-793 -747 0
-793 -748 0
-793 -749 0
-793 -750 0
-793 -751 0
-793 -752 0
-793 -753 0
-793 -754 0
-793 -755 0
-793 -756 0
-793 -757 0
-793 -758 0
-793 -759 0
-793 -760 0
-793 -761 0
-793 -762 0
-793 -763 0
-793 -764 0
-793 -765 0
-793 -766 0
-793 -767 0
-793 -768 0
-793 -769 0
-793 -770 0
-793 -771 0
-793 -772 0
-793 -773 0
-793 -774 0
-793 -775 0
-793 -776 0
-793 -777 0
-793 -778 0
-793 -779 0
-793 -780 0
-793 -781 0
-793 -782 0
-793 -783 0
-793 -784 0
-793 -785 0
-793 -786 0
-793 -787 0
-793 -788 0
-793 -789 0
-793 -790 0
-793 -791 0
-793 -792 0
793 0
-794 0
-795 0
-796 0
-797 0
-798 0
-799 0
-800 0
-801 0
